data/solutions/recovery/degenerate/moderate/flexible/degenerate_moderate_instance20/25.sol
Elapsed time: 4.18
Upper bound: 154543344.0
Planning weighted value: 2220762681.0
C[0]=154543344.0
C[1]=154444291.0
C[2]=154302841.0
C[3]=153659390.0
y[0]=2
y[1]=1
y[2]=1
y[3]=1
y[4]=3
y[5]=0
y[6]=2
y[7]=2
y[8]=3
y[9]=1
y[10]=1
y[11]=0
y[12]=0
y[13]=3
y[14]=1
y[15]=2
y[16]=3
y[17]=1
y[18]=0
y[19]=0
y[20]=3
y[21]=2
y[22]=0
y[23]=2
y[24]=2
y[25]=2
y[26]=3
y[27]=0
y[28]=1
y[29]=0
y[30]=1
y[31]=3
y[32]=3
y[33]=3
y[34]=1
y[35]=3
